0 8002143
325 7577374
650 7481662
975 7412175
1300 7342040
1625 7282060
1950 7242843
2275 7225748
2600 7213622
2925 7205209
3250 7197279
3575 7192560
3900 7173645
4225 7163009
4550 7160177
4875 7147437
5200 7146118
5525 7145062
5850 7144271
6175 7143906
6500 7143710
6825 7142877
7150 7142408
7475 7142238
7800 7142133
8125 7142084
8450 7142069
